decision_x1=[0,7];
decision_x2=[0,7];
decision_x3=[0,7];
decision_x4=[0,7];
decision_x5=[0,7];
decision_x6=[0,7];
decision_x7=[0,7];
decision_x8=[0,7];
decision_x9=[0,7];
decision_x10=[0,7];
decision_x11=[0,7];
decision_x12=[0,7];
decision_x13=[0,7];
decision_x14=[0,7];
decision_x15=[0,7];
decision_x16=[0,7];
decision_x17=[0,7];
decision_x18=[0,7];
random_y1=[0,7];
random_y2=[0,7];
random_y3=[0,7];
random_y4=[0,7];
random_y5=[0,7];
random_y6=[0,7];
random_y7=[0,7];
random_y8=[0,7];
constraint_x2_x1=[
0,0,1.4|
0,1,9.5|
0,2,1.5|
0,3,9.1|
0,4,0.11|
0,5,7.4|
0,6,3|
0,7,0.7|
1,0,8|
1,1,7.5|
1,2,3.3|
1,3,7.9|
1,4,8.4|
1,5,4.5|
1,6,4.6|
1,7,7.3|
2,0,8.7|
2,1,7.7|
2,2,9|
2,3,2.1|
2,4,0.77|
2,5,8.6|
2,6,2.9|
2,7,7.9|
3,0,6.8|
3,1,0.12|
3,2,6.9|
3,3,6.9|
3,4,6.6|
3,5,8|
3,6,0.96|
3,7,1.1|
4,0,4.1|
4,1,3.5|
4,2,5.6|
4,3,8.9|
4,4,0.38|
4,5,9.8|
4,6,1.4|
4,7,6.6|
5,0,2.6|
5,1,8.1|
5,2,6.6|
5,3,2.1|
5,4,9.6|
5,5,4.3|
5,6,6.8|
5,7,1.9|
6,0,4.3|
6,1,5.9|
6,2,1.7|
6,3,7.9|
6,4,6.4|
6,5,3.3|
6,6,3.9|
6,7,7|
7,0,9.1|
7,1,9.5|
7,2,1.4|
7,3,4.2|
7,4,3.3|
7,5,4.9|
7,6,5.3|
7,7,6.3|
];
constraint_x3_x2=[
0,0,7|
0,1,5.7|
0,2,1.4|
0,3,6.9|
0,4,0.12|
0,5,1.4|
0,6,6.3|
0,7,9.2|
1,0,9.1|
1,1,1.9|
1,2,3.3|
1,3,5|
1,4,3.4|
1,5,5.9|
1,6,0.32|
1,7,2.5|
2,0,9.1|
2,1,9|
2,2,9|
2,3,6.7|
2,4,3|
2,5,5.8|
2,6,1.1|
2,7,8.4|
3,0,2.8|
3,1,0.26|
3,2,8.6|
3,3,9.1|
3,4,8.2|
3,5,0.79|
3,6,9.1|
3,7,1.1|
4,0,1.6|
4,1,3|
4,2,3.8|
4,3,0.68|
4,4,1.5|
4,5,4|
4,6,6.1|
4,7,2.4|
5,0,3|
5,1,0.74|
5,2,3.8|
5,3,5.9|
5,4,1|
5,5,8.9|
5,6,5.6|
5,7,9.1|
6,0,9.7|
6,1,8.8|
6,2,9.6|
6,3,8.1|
6,4,8.1|
6,5,9.4|
6,6,9.1|
6,7,2.3|
7,0,5.1|
7,1,5.3|
7,2,1.2|
7,3,2.2|
7,4,7|
7,5,9.9|
7,6,9.5|
7,7,2.8|
];
constraint_x4_x3=[
0,0,5.6|
0,1,1.1|
0,2,4.9|
0,3,6.4|
0,4,3.3|
0,5,7.7|
0,6,4.5|
0,7,7.6|
1,0,9.9|
1,1,7.1|
1,2,5.4|
1,3,8.2|
1,4,5.6|
1,5,3.3|
1,6,4.8|
1,7,6.5|
2,0,1.8|
2,1,7.5|
2,2,4.7|
2,3,8.6|
2,4,9.2|
2,5,9.3|
2,6,2|
2,7,4|
3,0,0.9|
3,1,8.6|
3,2,5.4|
3,3,2.4|
3,4,9.3|
3,5,1.8|
3,6,0.88|
3,7,4.9|
4,0,4.3|
4,1,6.4|
4,2,5.4|
4,3,0.37|
4,4,4.1|
4,5,3.8|
4,6,3.1|
4,7,7.4|
5,0,3.5|
5,1,4.9|
5,2,0.4|
5,3,7.3|
5,4,5.6|
5,5,9|
5,6,6.7|
5,7,8.9|
6,0,6.8|
6,1,6.5|
6,2,4.7|
6,3,6.1|
6,4,4.2|
6,5,6.7|
6,6,3.4|
6,7,1.7|
7,0,0.36|
7,1,0.96|
7,2,9.5|
7,3,7.8|
7,4,7.2|
7,5,5.5|
7,6,7.9|
7,7,8|
];
constraint_x5_x1=[
0,0,9.7|
0,1,5.6|
0,2,8.7|
0,3,2.4|
0,4,1|
0,5,10|
0,6,9.6|
0,7,5.2|
1,0,9.2|
1,1,9.3|
1,2,3.2|
1,3,3.7|
1,4,1.7|
1,5,7.3|
1,6,4.8|
1,7,4.6|
2,0,3.8|
2,1,2.5|
2,2,7.6|
2,3,8.8|
2,4,1.6|
2,5,1.8|
2,6,1.7|
2,7,2.7|
3,0,2.5|
3,1,6.6|
3,2,6.5|
3,3,1.6|
3,4,4.9|
3,5,1.6|
3,6,1.2|
3,7,9.8|
4,0,2.4|
4,1,0.2|
4,2,9.8|
4,3,9.6|
4,4,0.47|
4,5,2.8|
4,6,0.48|
4,7,7.6|
5,0,0.44|
5,1,1.7|
5,2,7.5|
5,3,3|
5,4,2.7|
5,5,0.28|
5,6,6.3|
5,7,1|
6,0,4|
6,1,2|
6,2,8.5|
6,3,7.9|
6,4,2.1|
6,5,1.7|
6,6,9.3|
6,7,2.3|
7,0,7.2|
7,1,1.4|
7,2,1.4|
7,3,1.2|
7,4,8.1|
7,5,5.9|
7,6,3.3|
7,7,8.6|
];
constraint_x6_x2=[
0,0,2|
0,1,3.1|
0,2,4|
0,3,0.16|
0,4,3.2|
0,5,0.14|
0,6,0.25|
0,7,9.4|
1,0,8.7|
1,1,5.6|
1,2,4.8|
1,3,1|
1,4,1.2|
1,5,8.2|
1,6,3.8|
1,7,4.9|
2,0,1.4|
2,1,8.4|
2,2,7.5|
2,3,3.2|
2,4,8.1|
2,5,7.4|
2,6,3.5|
2,7,0.16|
3,0,3|
3,1,3|
3,2,1.3|
3,3,5.8|
3,4,4.2|
3,5,9.3|
3,6,0.69|
3,7,5.4|
4,0,5.9|
4,1,1.7|
4,2,5.3|
4,3,3.7|
4,4,5.2|
4,5,8.7|
4,6,4.2|
4,7,5.3|
5,0,7.4|
5,1,2|
5,2,9.9|
5,3,7.7|
5,4,4.1|
5,5,5|
5,6,5.6|
5,7,6.9|
6,0,8.2|
6,1,8.5|
6,2,6.5|
6,3,5.7|
6,4,5|
6,5,0.76|
6,6,9.8|
6,7,3.3|
7,0,6.9|
7,1,2.6|
7,2,0.18|
7,3,8.7|
7,4,8.9|
7,5,0.66|
7,6,1.2|
7,7,9.4|
];
constraint_x6_x5=[
0,0,4|
0,1,1.5|
0,2,5.4|
0,3,5.6|
0,4,1.6|
0,5,2.2|
0,6,3.4|
0,7,3.8|
1,0,0.066|
1,1,7.8|
1,2,5.7|
1,3,6.6|
1,4,3.3|
1,5,7.2|
1,6,1.4|
1,7,4.3|
2,0,4|
2,1,4.3|
2,2,4.1|
2,3,2.1|
2,4,2.1|
2,5,8.9|
2,6,2.7|
2,7,9.7|
3,0,0.91|
3,1,4.2|
3,2,6.4|
3,3,1.1|
3,4,0.021|
3,5,5.6|
3,6,8.9|
3,7,3.3|
4,0,6.5|
4,1,7.9|
4,2,8.9|
4,3,6|
4,4,9.8|
4,5,9.4|
4,6,3.4|
4,7,5.1|
5,0,9|
5,1,9.5|
5,2,6.2|
5,3,3.2|
5,4,0.61|
5,5,8.3|
5,6,4.6|
5,7,5.4|
6,0,5.9|
6,1,6.5|
6,2,7.2|
6,3,6.1|
6,4,0.47|
6,5,7.7|
6,6,0.66|
6,7,9.7|
7,0,4.7|
7,1,9.3|
7,2,2.2|
7,3,1.8|
7,4,3.3|
7,5,8.7|
7,6,8.1|
7,7,4.5|
];
constraint_x7_x3=[
0,0,4.6|
0,1,1.2|
0,2,1.8|
0,3,5.8|
0,4,5.8|
0,5,8.7|
0,6,6.7|
0,7,4.9|
1,0,8.9|
1,1,8.2|
1,2,6.4|
1,3,1.7|
1,4,4|
1,5,7.4|
1,6,2.5|
1,7,4.6|
2,0,2.5|
2,1,2.8|
2,2,5.1|
2,3,4.7|
2,4,7.7|
2,5,6.6|
2,6,3.5|
2,7,0.31|
3,0,7|
3,1,0.52|
3,2,6.5|
3,3,0.62|
3,4,8.6|
3,5,2.7|
3,6,1.1|
3,7,4|
4,0,7.9|
4,1,5.3|
4,2,0.28|
4,3,6|
4,4,4.9|
4,5,9.9|
4,6,5.4|
4,7,9.7|
5,0,9.1|
5,1,4.6|
5,2,0.9|
5,3,6.6|
5,4,4.5|
5,5,6|
5,6,3.9|
5,7,5.6|
6,0,3|
6,1,9.9|
6,2,1.4|
6,3,4.7|
6,4,5.6|
6,5,1.4|
6,6,2.7|
6,7,3.8|
7,0,9.2|
7,1,7.7|
7,2,6.1|
7,3,3.6|
7,4,2.6|
7,5,7.6|
7,6,5.5|
7,7,8.7|
];
constraint_x7_x6=[
0,0,9.3|
0,1,0.27|
0,2,9.4|
0,3,4.6|
0,4,8|
0,5,7.9|
0,6,9.4|
0,7,8.5|
1,0,2.4|
1,1,2.7|
1,2,1.8|
1,3,1|
1,4,5|
1,5,1.1|
1,6,8.3|
1,7,1.4|
2,0,8.3|
2,1,6.2|
2,2,0.36|
2,3,5.8|
2,4,2.5|
2,5,2.9|
2,6,4.7|
2,7,9.4|
3,0,2.8|
3,1,9.3|
3,2,9.2|
3,3,1.7|
3,4,7.9|
3,5,4.5|
3,6,10|
3,7,7.1|
4,0,3.1|
4,1,9.6|
4,2,3.6|
4,3,2.3|
4,4,1.8|
4,5,1.8|
4,6,0.044|
4,7,0.36|
5,0,8.3|
5,1,7.4|
5,2,1.5|
5,3,7.3|
5,4,2.3|
5,5,9.2|
5,6,9.7|
5,7,6.4|
6,0,2.6|
6,1,8.5|
6,2,7.6|
6,3,3.8|
6,4,1.5|
6,5,0.53|
6,6,8.1|
6,7,1|
7,0,3|
7,1,0.53|
7,2,0.29|
7,3,0.8|
7,4,3.5|
7,5,5.7|
7,6,3.1|
7,7,3.4|
];
constraint_x8_x4=[
0,0,3.2|
0,1,2.2|
0,2,3.3|
0,3,0.89|
0,4,2.9|
0,5,2.6|
0,6,6.9|
0,7,9.4|
1,0,0.67|
1,1,6.8|
1,2,6.7|
1,3,5|
1,4,2.8|
1,5,9|
1,6,9.1|
1,7,0.51|
2,0,3.5|
2,1,8.3|
2,2,0.77|
2,3,6.7|
2,4,2.3|
2,5,8.4|
2,6,1.3|
2,7,8.8|
3,0,9.5|
3,1,6.6|
3,2,5.8|
3,3,0.23|
3,4,2|
3,5,4.2|
3,6,4.8|
3,7,2.6|
4,0,0.68|
4,1,1.3|
4,2,3.5|
4,3,1.4|
4,4,5.1|
4,5,6|
4,6,0.46|
4,7,3.7|
5,0,7.6|
5,1,8.8|
5,2,7.2|
5,3,5.2|
5,4,7.6|
5,5,6.1|
5,6,7.3|
5,7,4.4|
6,0,3.8|
6,1,3.9|
6,2,5.7|
6,3,9.2|
6,4,5.8|
6,5,8.9|
6,6,3|
6,7,0.87|
7,0,9.2|
7,1,2.9|
7,2,9|
7,3,1|
7,4,3.4|
7,5,9.9|
7,6,3.9|
7,7,1.1|
];
constraint_x8_x7=[
0,0,4.9|
0,1,9.2|
0,2,2.5|
0,3,3.4|
0,4,2.5|
0,5,8|
0,6,6.7|
0,7,2.5|
1,0,6|
1,1,9.8|
1,2,5.7|
1,3,1.9|
1,4,3.8|
1,5,6.9|
1,6,4.3|
1,7,4.2|
2,0,1.5|
2,1,6.2|
2,2,4.3|
2,3,6.1|
2,4,0.85|
2,5,1.2|
2,6,0.2|
2,7,9.7|
3,0,0.39|
3,1,2.5|
3,2,3.9|
3,3,0.84|
3,4,2.8|
3,5,6.3|
3,6,1.8|
3,7,5.5|
4,0,4.1|
4,1,8.2|
4,2,0.56|
4,3,9.3|
4,4,0.65|
4,5,6.6|
4,6,0.76|
4,7,3.1|
5,0,5.2|
5,1,5.6|
5,2,0.35|
5,3,5.9|
5,4,2.7|
5,5,0.29|
5,6,2.1|
5,7,2.1|
6,0,7.3|
6,1,5.2|
6,2,5.9|
6,3,8.1|
6,4,6.4|
6,5,5.1|
6,6,1.2|
6,7,1.6|
7,0,4.1|
7,1,5.1|
7,2,8.6|
7,3,0.37|
7,4,5.4|
7,5,6.5|
7,6,7.6|
7,7,7.8|
];
constraint_x9_x5=[
0,0,5.1|
0,1,6.7|
0,2,6.3|
0,3,1.4|
0,4,2|
0,5,5.9|
0,6,4.2|
0,7,7|
1,0,9.5|
1,1,0.4|
1,2,4.4|
1,3,3.6|
1,4,8|
1,5,0.51|
1,6,10|
1,7,2.2|
2,0,7.4|
2,1,9.1|
2,2,3.1|
2,3,0.14|
2,4,0.59|
2,5,2.2|
2,6,4.1|
2,7,3.6|
3,0,9.8|
3,1,7.8|
3,2,8.6|
3,3,7.3|
3,4,4.7|
3,5,10|
3,6,6.1|
3,7,2.6|
4,0,3.5|
4,1,1|
4,2,0.67|
4,3,3.8|
4,4,5.4|
4,5,4.4|
4,6,2.4|
4,7,0.064|
5,0,1.1|
5,1,7.8|
5,2,0.72|
5,3,5.5|
5,4,5|
5,5,5.8|
5,6,2.7|
5,7,4.3|
6,0,3.1|
6,1,5.8|
6,2,1.5|
6,3,8|
6,4,3.9|
6,5,1.8|
6,6,7.9|
6,7,2.7|
7,0,4.7|
7,1,9.2|
7,2,9.5|
7,3,8.4|
7,4,3.3|
7,5,1|
7,6,2.3|
7,7,9.4|
];
constraint_x10_x6=[
0,0,8.5|
0,1,3.6|
0,2,9.7|
0,3,2|
0,4,9.6|
0,5,1|
0,6,7.7|
0,7,3.1|
1,0,7|
1,1,8.9|
1,2,0.42|
1,3,9.9|
1,4,8.3|
1,5,1.8|
1,6,8.6|
1,7,0.31|
2,0,7.4|
2,1,9.7|
2,2,7.1|
2,3,8.5|
2,4,7.4|
2,5,0.68|
2,6,6|
2,7,6.6|
3,0,7.8|
3,1,8.2|
3,2,7.5|
3,3,6|
3,4,5.2|
3,5,8|
3,6,9.8|
3,7,4|
4,0,3.8|
4,1,7.4|
4,2,5.7|
4,3,5.7|
4,4,5.4|
4,5,9.1|
4,6,3.7|
4,7,2.6|
5,0,5.6|
5,1,6.3|
5,2,8.8|
5,3,5.1|
5,4,0.84|
5,5,6.8|
5,6,0.31|
5,7,5.1|
6,0,2.4|
6,1,9.9|
6,2,6.1|
6,3,5|
6,4,3.7|
6,5,8.9|
6,6,4.7|
6,7,7.9|
7,0,2|
7,1,9.9|
7,2,4.3|
7,3,0.99|
7,4,3.1|
7,5,9.7|
7,6,1.1|
7,7,5.7|
];
constraint_x10_x9=[
0,0,0.77|
0,1,2.4|
0,2,4.9|
0,3,7|
0,4,5.4|
0,5,9.1|
0,6,9.9|
0,7,7.8|
1,0,8.1|
1,1,9.2|
1,2,5.9|
1,3,2.8|
1,4,3.7|
1,5,6.6|
1,6,5.8|
1,7,3.3|
2,0,3.7|
2,1,0.074|
2,2,3.8|
2,3,7|
2,4,5.4|
2,5,1.4|
2,6,7.9|
2,7,9.1|
3,0,9.3|
3,1,0.54|
3,2,7.2|
3,3,5.9|
3,4,3.6|
3,5,9|
3,6,5.3|
3,7,6|
4,0,8.7|
4,1,7.8|
4,2,1.5|
4,3,6.3|
4,4,3.2|
4,5,8.5|
4,6,1.8|
4,7,2.9|
5,0,6.2|
5,1,2.2|
5,2,3.7|
5,3,4.8|
5,4,3.8|
5,5,3.5|
5,6,0.12|
5,7,5.4|
6,0,9.3|
6,1,6.1|
6,2,6.6|
6,3,2.1|
6,4,5.3|
6,5,0.77|
6,6,7.2|
6,7,4.7|
7,0,9.9|
7,1,9.8|
7,2,0.22|
7,3,8.5|
7,4,3.6|
7,5,1.1|
7,6,5|
7,7,7.6|
];
constraint_x11_x7=[
0,0,6.5|
0,1,6.1|
0,2,3.3|
0,3,5.9|
0,4,0.06|
0,5,1.8|
0,6,4.6|
0,7,8.1|
1,0,1.4|
1,1,0.46|
1,2,2.2|
1,3,7.6|
1,4,6.8|
1,5,0.26|
1,6,4.5|
1,7,1.3|
2,0,6|
2,1,4.3|
2,2,1.1|
2,3,2|
2,4,6.5|
2,5,8.9|
2,6,3|
2,7,1.1|
3,0,7.7|
3,1,1.7|
3,2,7.2|
3,3,9.3|
3,4,1.9|
3,5,9.5|
3,6,8.8|
3,7,9.5|
4,0,5.9|
4,1,8.2|
4,2,9.3|
4,3,2.5|
4,4,7.3|
4,5,2.6|
4,6,5.5|
4,7,5.9|
5,0,9.6|
5,1,4.1|
5,2,6.6|
5,3,0.55|
5,4,7.1|
5,5,8.1|
5,6,4.7|
5,7,2|
6,0,5.5|
6,1,4.5|
6,2,3.4|
6,3,4.1|
6,4,2.1|
6,5,0.76|
6,6,8.5|
6,7,0.26|
7,0,6.8|
7,1,7.5|
7,2,9.6|
7,3,6.6|
7,4,2.5|
7,5,7.6|
7,6,2.2|
7,7,7.6|
];
constraint_x11_x10=[
0,0,8.2|
0,1,4.1|
0,2,4.2|
0,3,8.6|
0,4,9.7|
0,5,3.8|
0,6,8.7|
0,7,0.31|
1,0,0.05|
1,1,2.4|
1,2,9.4|
1,3,0.6|
1,4,4.2|
1,5,3.8|
1,6,4.3|
1,7,7.2|
2,0,9.5|
2,1,2|
2,2,5.6|
2,3,9.2|
2,4,5.8|
2,5,7|
2,6,1.4|
2,7,6.5|
3,0,1.5|
3,1,2|
3,2,4.3|
3,3,3.8|
3,4,6|
3,5,5.1|
3,6,7.2|
3,7,6.9|
4,0,4.4|
4,1,3.7|
4,2,0.68|
4,3,0.067|
4,4,3.4|
4,5,0.27|
4,6,2|
4,7,5.9|
5,0,9|
5,1,8.6|
5,2,8|
5,3,6|
5,4,5.7|
5,5,8.5|
5,6,6.6|
5,7,8.8|
6,0,9.2|
6,1,6.9|
6,2,1.4|
6,3,5.6|
6,4,5.4|
6,5,1.7|
6,6,4.4|
6,7,4.5|
7,0,6.4|
7,1,7.8|
7,2,9.6|
7,3,2.7|
7,4,2.9|
7,5,6.2|
7,6,8.8|
7,7,6.3|
];
constraint_x12_x8=[
0,0,0.14|
0,1,3.2|
0,2,7.7|
0,3,9|
0,4,0.81|
0,5,0.024|
0,6,7.5|
0,7,2.9|
1,0,4.7|
1,1,3.3|
1,2,7.7|
1,3,3.9|
1,4,1.1|
1,5,5.6|
1,6,7.9|
1,7,1.7|
2,0,9.6|
2,1,8.4|
2,2,3.7|
2,3,10|
2,4,4.4|
2,5,9.6|
2,6,8.6|
2,7,0.88|
3,0,1.7|
3,1,9.3|
3,2,2.3|
3,3,6|
3,4,9.3|
3,5,7.8|
3,6,5.4|
3,7,2.5|
4,0,2.6|
4,1,0.38|
4,2,7.4|
4,3,4.2|
4,4,0.46|
4,5,5.8|
4,6,3|
4,7,6.1|
5,0,1|
5,1,9.2|
5,2,6.6|
5,3,4.7|
5,4,9.4|
5,5,6|
5,6,6.3|
5,7,3.3|
6,0,3|
6,1,4.4|
6,2,7.5|
6,3,6.9|
6,4,6.8|
6,5,9.1|
6,6,1.5|
6,7,9.2|
7,0,0.15|
7,1,9.3|
7,2,4.8|
7,3,3.4|
7,4,6.6|
7,5,4.7|
7,6,6.1|
7,7,4.1|
];
constraint_x12_x11=[
0,0,6.6|
0,1,2.8|
0,2,6.7|
0,3,2.9|
0,4,9.3|
0,5,2.8|
0,6,4.8|
0,7,0.3|
1,0,6.6|
1,1,4.1|
1,2,8.2|
1,3,4.5|
1,4,5.7|
1,5,5.1|
1,6,6.3|
1,7,9.9|
2,0,3.4|
2,1,6.7|
2,2,8.2|
2,3,4.7|
2,4,2.8|
2,5,5|
2,6,4.1|
2,7,7.8|
3,0,4.8|
3,1,8.6|
3,2,1.7|
3,3,0.55|
3,4,4.7|
3,5,0.05|
3,6,7.5|
3,7,5.1|
4,0,3.6|
4,1,2.5|
4,2,7.8|
4,3,8.9|
4,4,8.4|
4,5,5.7|
4,6,8.4|
4,7,4.2|
5,0,0.91|
5,1,3.8|
5,2,8.5|
5,3,0.22|
5,4,3.5|
5,5,8.2|
5,6,2.4|
5,7,3.3|
6,0,7.3|
6,1,8.2|
6,2,1.8|
6,3,5.6|
6,4,8.9|
6,5,4|
6,6,6.9|
6,7,4.6|
7,0,8|
7,1,1.1|
7,2,3.6|
7,3,1.6|
7,4,9.4|
7,5,9.1|
7,6,4.2|
7,7,6.5|
];
constraint_x13_x9=[
0,0,6.9|
0,1,3.2|
0,2,5.1|
0,3,7.8|
0,4,6.2|
0,5,4.3|
0,6,0.83|
0,7,7.9|
1,0,0.36|
1,1,4.8|
1,2,7.9|
1,3,5.4|
1,4,10|
1,5,7.9|
1,6,5.9|
1,7,3.7|
2,0,2.9|
2,1,9.3|
2,2,6.7|
2,3,0.38|
2,4,9.5|
2,5,2.9|
2,6,7.9|
2,7,8.1|
3,0,7.5|
3,1,6.1|
3,2,2.8|
3,3,0.98|
3,4,3.7|
3,5,4.7|
3,6,3.7|
3,7,8.4|
4,0,1.2|
4,1,0.67|
4,2,2.8|
4,3,3.3|
4,4,5.2|
4,5,2.8|
4,6,9.4|
4,7,3.4|
5,0,5.8|
5,1,1.6|
5,2,4.3|
5,3,0.56|
5,4,6.9|
5,5,7.2|
5,6,3.4|
5,7,5|
6,0,7.8|
6,1,2.5|
6,2,2.9|
6,3,2.3|
6,4,0.029|
6,5,8|
6,6,0.2|
6,7,9.6|
7,0,2.7|
7,1,0.027|
7,2,5.4|
7,3,0.89|
7,4,4.3|
7,5,7.9|
7,6,3.5|
7,7,3.7|
];
constraint_x14_x10=[
0,0,3|
0,1,5.4|
0,2,9.4|
0,3,1.2|
0,4,1.5|
0,5,4.5|
0,6,5.1|
0,7,4.3|
1,0,6|
1,1,1.6|
1,2,0.13|
1,3,0.68|
1,4,4.6|
1,5,3.4|
1,6,5.5|
1,7,7|
2,0,0.37|
2,1,4.5|
2,2,9.3|
2,3,4.3|
2,4,7.9|
2,5,6.6|
2,6,7.2|
2,7,6.3|
3,0,9.3|
3,1,5.1|
3,2,9.9|
3,3,9.8|
3,4,8.9|
3,5,7.1|
3,6,5.9|
3,7,8.1|
4,0,4.7|
4,1,6.6|
4,2,2.4|
4,3,5.4|
4,4,1|
4,5,5.4|
4,6,9.4|
4,7,4.1|
5,0,1.4|
5,1,7.3|
5,2,3.7|
5,3,9.9|
5,4,7.9|
5,5,5|
5,6,4.6|
5,7,3.5|
6,0,6.3|
6,1,5.6|
6,2,2.3|
6,3,4.2|
6,4,5.1|
6,5,2|
6,6,3|
6,7,1.4|
7,0,0.94|
7,1,4|
7,2,2.8|
7,3,1.7|
7,4,9.9|
7,5,1.9|
7,6,4|
7,7,7.8|
];
constraint_x15_x11=[
0,0,9.6|
0,1,3.2|
0,2,1.3|
0,3,0.85|
0,4,2.4|
0,5,1.9|
0,6,9.5|
0,7,8.5|
1,0,6.7|
1,1,8.7|
1,2,0.13|
1,3,0.75|
1,4,4.9|
1,5,6.6|
1,6,8.6|
1,7,1|
2,0,2.3|
2,1,0.038|
2,2,5.2|
2,3,5.8|
2,4,0.89|
2,5,3.4|
2,6,2.3|
2,7,7.9|
3,0,5.9|
3,1,3.1|
3,2,5.6|
3,3,6.6|
3,4,6.3|
3,5,3|
3,6,1.4|
3,7,9.8|
4,0,4.9|
4,1,0.4|
4,2,9.9|
4,3,4|
4,4,5.7|
4,5,7.8|
4,6,8.9|
4,7,3.2|
5,0,5.7|
5,1,4.3|
5,2,4.6|
5,3,9.6|
5,4,2.9|
5,5,4.8|
5,6,2.8|
5,7,9|
6,0,2.8|
6,1,9.7|
6,2,2.4|
6,3,4.4|
6,4,2.6|
6,5,7.5|
6,6,4.2|
6,7,4.9|
7,0,2.2|
7,1,2.2|
7,2,4.6|
7,3,4.9|
7,4,7.6|
7,5,5.4|
7,6,4.1|
7,7,10|
];
constraint_x16_x12=[
0,0,0.71|
0,1,5.6|
0,2,9.4|
0,3,2|
0,4,1.4|
0,5,4.5|
0,6,0.29|
0,7,3.5|
1,0,0.72|
1,1,7.2|
1,2,3.2|
1,3,6.9|
1,4,4.9|
1,5,4.3|
1,6,0.42|
1,7,0.91|
2,0,3.6|
2,1,7.5|
2,2,4.9|
2,3,5.3|
2,4,6.3|
2,5,10|
2,6,4.8|
2,7,7.5|
3,0,1.5|
3,1,3.7|
3,2,5.2|
3,3,6.1|
3,4,3.1|
3,5,9.7|
3,6,7.5|
3,7,2.3|
4,0,8.6|
4,1,4.4|
4,2,3.6|
4,3,6.5|
4,4,4.7|
4,5,6.6|
4,6,7.2|
4,7,0.89|
5,0,8.7|
5,1,9.3|
5,2,4.9|
5,3,7.1|
5,4,3.7|
5,5,1.1|
5,6,0.012|
5,7,4.7|
6,0,0.85|
6,1,7.3|
6,2,3.4|
6,3,1.9|
6,4,1.7|
6,5,9.5|
6,6,7.5|
6,7,6.4|
7,0,5.3|
7,1,5.6|
7,2,4.8|
7,3,7.4|
7,4,0.47|
7,5,7.4|
7,6,7.5|
7,7,9.8|
];
constraint_x17_x13=[
0,0,4.9|
0,1,5.5|
0,2,1.8|
0,3,1.5|
0,4,7.9|
0,5,3.1|
0,6,0.46|
0,7,2|
1,0,0.83|
1,1,3|
1,2,9.4|
1,3,3.2|
1,4,6.1|
1,5,8.6|
1,6,8.5|
1,7,7.6|
2,0,1.2|
2,1,1.5|
2,2,2.7|
2,3,9.8|
2,4,7.2|
2,5,1.4|
2,6,6.3|
2,7,9.6|
3,0,4.5|
3,1,0.35|
3,2,6.1|
3,3,7.9|
3,4,9.8|
3,5,5.2|
3,6,0.65|
3,7,0.79|
4,0,4.2|
4,1,0.91|
4,2,8.8|
4,3,5.8|
4,4,1.6|
4,5,2|
4,6,9.3|
4,7,7.9|
5,0,1.2|
5,1,6.5|
5,2,7.1|
5,3,0.064|
5,4,6.7|
5,5,5.8|
5,6,1.2|
5,7,8.1|
6,0,2.1|
6,1,4.8|
6,2,8.6|
6,3,3.1|
6,4,1.9|
6,5,0.0088|
6,6,8.6|
6,7,4.3|
7,0,4.4|
7,1,7.5|
7,2,4.5|
7,3,7.9|
7,4,3.9|
7,5,6.8|
7,6,2.6|
7,7,5.6|
];
constraint_x18_x14=[
0,0,4.9|
0,1,1.7|
0,2,4.5|
0,3,8|
0,4,6.4|
0,5,7.6|
0,6,5.9|
0,7,1.4|
1,0,6.5|
1,1,9.4|
1,2,8.5|
1,3,2.2|
1,4,0.38|
1,5,2|
1,6,3.7|
1,7,9.3|
2,0,5.1|
2,1,8|
2,2,9.7|
2,3,5.5|
2,4,6.1|
2,5,2.2|
2,6,3.7|
2,7,6.7|
3,0,8|
3,1,0.38|
3,2,3.5|
3,3,9.8|
3,4,2|
3,5,7.6|
3,6,1.6|
3,7,3.7|
4,0,3.9|
4,1,0.24|
4,2,5.7|
4,3,6.3|
4,4,2.1|
4,5,1.9|
4,6,1.2|
4,7,8.9|
5,0,4.6|
5,1,9.4|
5,2,6.1|
5,3,3.4|
5,4,2.8|
5,5,5.8|
5,6,5.7|
5,7,9.5|
6,0,4|
6,1,7.9|
6,2,9.4|
6,3,5|
6,4,4.1|
6,5,8|
6,6,9.6|
6,7,0.77|
7,0,3.8|
7,1,9|
7,2,1.3|
7,3,0.65|
7,4,2.2|
7,5,9|
7,6,5.9|
7,7,5.3|
];
constraint_x1_y1=[
0,0,5.6|
0,1,0.11|
0,2,7.7|
0,3,8.9|
0,4,3.8|
0,5,5.3|
0,6,2.8|
0,7,5.7|
1,0,6.8|
1,1,2.1|
1,2,1.6|
1,3,8.6|
1,4,9.9|
1,5,2.8|
1,6,9.1|
1,7,2.9|
2,0,1.3|
2,1,6.1|
2,2,5.9|
2,3,0.9|
2,4,9.2|
2,5,6.2|
2,6,8.3|
2,7,0.23|
3,0,7.8|
3,1,6.5|
3,2,4.6|
3,3,7.4|
3,4,6.3|
3,5,4.1|
3,6,7.9|
3,7,9.5|
4,0,8.8|
4,1,2.6|
4,2,4.8|
4,3,5.3|
4,4,0.035|
4,5,1.3|
4,6,2|
4,7,9.9|
5,0,7.2|
5,1,6.1|
5,2,9.8|
5,3,9|
5,4,0.91|
5,5,0.95|
5,6,9|
5,7,2.5|
6,0,2.9|
6,1,8.9|
6,2,8.4|
6,3,3.8|
6,4,3.8|
6,5,4|
6,6,1|
6,7,1.4|
7,0,8.2|
7,1,3.7|
7,2,4.6|
7,3,5.9|
7,4,0.37|
7,5,6|
7,6,5.7|
7,7,7.9|
];
constraint_x2_y2=[
0,0,8.7|
0,1,9.2|
0,2,9.7|
0,3,4.9|
0,4,1.4|
0,5,5.7|
0,6,6.3|
0,7,8|
1,0,2|
1,1,8.2|
1,2,3.2|
1,3,4.4|
1,4,4.8|
1,5,5.7|
1,6,7.1|
1,7,0.26|
2,0,5.9|
2,1,1.7|
2,2,5|
2,3,5.7|
2,4,4.5|
2,5,8.7|
2,6,4.2|
2,7,9.7|
3,0,0.16|
3,1,7.9|
3,2,8.6|
3,3,2.5|
3,4,2.6|
3,5,6.4|
3,6,7.3|
3,7,8.3|
4,0,7.2|
4,1,1.3|
4,2,6.1|
4,3,7.6|
4,4,3.5|
4,5,2.5|
4,6,3|
4,7,6.6|
5,0,6.6|
5,1,2.1|
5,2,1.4|
5,3,0.097|
5,4,1.9|
5,5,5.1|
5,6,4.5|
5,7,0.11|
6,0,8.5|
6,1,3.5|
6,2,2.6|
6,3,0.98|
6,4,3.1|
6,5,5.8|
6,6,2.3|
6,7,2.5|
7,0,5.6|
7,1,5.4|
7,2,5.4|
7,3,3.2|
7,4,1.1|
7,5,0.95|
7,6,8.1|
7,7,0.23|
];
constraint_x3_y3=[
0,0,0.77|
0,1,2.9|
0,2,7.7|
0,3,7.6|
0,4,3.2|
0,5,6.3|
0,6,9.1|
0,7,4.6|
1,0,8.4|
1,1,1|
1,2,2.8|
1,3,1.2|
1,4,9.5|
1,5,3.3|
1,6,8.9|
1,7,5.1|
2,0,1.2|
2,1,0.78|
2,2,9.5|
2,3,4.5|
2,4,6.9|
2,5,8.2|
2,6,6.4|
2,7,9.1|
3,0,2.9|
3,1,8.8|
3,2,0.42|
3,3,2.2|
3,4,3.3|
3,5,5.1|
3,6,9.6|
3,7,3.9|
4,0,1|
4,1,9|
4,2,6.6|
4,3,6.7|
4,4,3.6|
4,5,6.7|
4,6,6.9|
4,7,7.5|
5,0,9.2|
5,1,7.3|
5,2,1.8|
5,3,5.7|
5,4,5.6|
5,5,0.58|
5,6,4.3|
5,7,8.4|
6,0,6.7|
6,1,9.6|
6,2,0.0056|
6,3,4.8|
6,4,0.39|
6,5,5.9|
6,6,3|
6,7,9.4|
7,0,5.7|
7,1,1|
7,2,1.2|
7,3,4.5|
7,4,8.1|
7,5,8|
7,6,8.6|
7,7,1.3|
];
constraint_x4_y4=[
0,0,3|
0,1,9.8|
0,2,4.6|
0,3,5.3|
0,4,3.6|
0,5,3.7|
0,6,2.6|
0,7,3.9|
1,0,1.7|
1,1,9.2|
1,2,1.9|
1,3,6.8|
1,4,6.4|
1,5,7|
1,6,1.1|
1,7,6.6|
2,0,8.3|
2,1,5.7|
2,2,4.1|
2,3,9.4|
2,4,0.2|
2,5,5.4|
2,6,5.4|
2,7,1.6|
3,0,1.4|
3,1,9.4|
3,2,8|
3,3,8.9|
3,4,3.5|
3,5,3.6|
3,6,6.9|
3,7,7.1|
4,0,5.2|
4,1,8.8|
4,2,1.3|
4,3,7.8|
4,4,7.9|
4,5,1.7|
4,6,0.26|
4,7,6.8|
5,0,8.6|
5,1,0.14|
5,2,1.7|
5,3,0.85|
5,4,2.3|
5,5,4.7|
5,6,9.2|
5,7,2.5|
6,0,7|
6,1,0.22|
6,2,5|
6,3,7.4|
6,4,2.8|
6,5,9|
6,6,2.8|
6,7,1.7|
7,0,4.8|
7,1,0.49|
7,2,8.7|
7,3,1.9|
7,4,3.9|
7,5,9.2|
7,6,7.9|
7,7,9.8|
];
constraint_x5_y5=[
0,0,0.44|
0,1,8.5|
0,2,9.7|
0,3,0.15|
0,4,4.8|
0,5,2.2|
0,6,2.8|
0,7,9.2|
1,0,4.2|
1,1,3.2|
1,2,8.2|
1,3,6.5|
1,4,0.26|
1,5,0.68|
1,6,1.2|
1,7,6.2|
2,0,0.29|
2,1,1.4|
2,2,2.9|
2,3,7.4|
2,4,0.92|
2,5,5|
2,6,8|
2,7,5.8|
3,0,6.9|
3,1,2.2|
3,2,5|
3,3,7|
3,4,8.6|
3,5,9.6|
3,6,2.1|
3,7,10|
4,0,4.2|
4,1,3.3|
4,2,2.7|
4,3,1.4|
4,4,0.3|
4,5,4|
4,6,0.67|
4,7,9.7|
5,0,1|
5,1,6.1|
5,2,6.6|
5,3,3.7|
5,4,4.1|
5,5,2|
5,6,0.28|
5,7,0.0054|
6,0,2.9|
6,1,9.3|
6,2,7.8|
6,3,7.4|
6,4,2|
6,5,1.6|
6,6,8.9|
6,7,6.4|
7,0,6.9|
7,1,5.2|
7,2,3.1|
7,3,8.4|
7,4,9.5|
7,5,5.8|
7,6,1|
7,7,0.4|
];
constraint_x6_y6=[
0,0,2.8|
0,1,5.5|
0,2,8.5|
0,3,5.5|
0,4,6.5|
0,5,7.2|
0,6,0.55|
0,7,6.5|
1,0,5.6|
1,1,5.5|
1,2,3.9|
1,3,3.5|
1,4,7.7|
1,5,3.9|
1,6,9.5|
1,7,3.5|
2,0,3.9|
2,1,2.7|
2,2,9.5|
2,3,9.8|
2,4,3.3|
2,5,4.8|
2,6,2|
2,7,10|
3,0,9.7|
3,1,1.4|
3,2,1.7|
3,3,1.2|
3,4,2.4|
3,5,9.7|
3,6,4.7|
3,7,4.3|
4,0,9.3|
4,1,5.6|
4,2,4.5|
4,3,4.5|
4,4,3.9|
4,5,3|
4,6,9.6|
4,7,8.9|
5,0,7.2|
5,1,5.1|
5,2,6.1|
5,3,0.94|
5,4,5.5|
5,5,5.4|
5,6,10|
5,7,7.9|
6,0,9.8|
6,1,8.5|
6,2,8.3|
6,3,3.1|
6,4,2|
6,5,6.2|
6,6,3.4|
6,7,1.7|
7,0,2.6|
7,1,7.6|
7,2,5.9|
7,3,4.7|
7,4,1.5|
7,5,0.28|
7,6,1.9|
7,7,6.1|
];
constraint_x7_y7=[
0,0,8.3|
0,1,3.8|
0,2,6.6|
0,3,9.7|
0,4,8.8|
0,5,9.4|
0,6,3.4|
0,7,7.6|
1,0,0.16|
1,1,3.7|
1,2,2.5|
1,3,0.25|
1,4,7.1|
1,5,1.9|
1,6,7.1|
1,7,8.3|
2,0,8.1|
2,1,8.4|
2,2,1.3|
2,3,2.9|
2,4,5.4|
2,5,2.5|
2,6,8.2|
2,7,9.1|
3,0,1|
3,1,7.3|
3,2,9.6|
3,3,0.44|
3,4,1.2|
3,5,4.5|
3,6,0.8|
3,7,9.3|
4,0,8.9|
4,1,2.8|
4,2,7.3|
4,3,2.9|
4,4,4.9|
4,5,0.028|
4,6,1.4|
4,7,1.9|
5,0,6.6|
5,1,9.2|
5,2,8.4|
5,3,4.5|
5,4,3.5|
5,5,8.5|
5,6,2.1|
5,7,2.9|
6,0,4.2|
6,1,0.56|
6,2,5.9|
6,3,8.2|
6,4,3.9|
6,5,4.9|
6,6,3.4|
6,7,8.1|
7,0,7.5|
7,1,2.2|
7,2,1.3|
7,3,2.3|
7,4,7.4|
7,5,7.2|
7,6,1|
7,7,3.3|
];
constraint_x8_y8=[
0,0,8.3|
0,1,5.6|
0,2,8.8|
0,3,4|
0,4,7.1|
0,5,6.8|
0,6,4.8|
0,7,3.1|
1,0,2.4|
1,1,4.6|
1,2,3.9|
1,3,1.3|
1,4,7.7|
1,5,2.6|
1,6,0.89|
1,7,2.6|
2,0,6.2|
2,1,2.8|
2,2,0.87|
2,3,3.4|
2,4,1.9|
2,5,1.6|
2,6,8|
2,7,1.7|
3,0,9.8|
3,1,7.1|
3,2,6.4|
3,3,0.75|
3,4,5.2|
3,5,3.7|
3,6,8.6|
3,7,5|
4,0,5.8|
4,1,2.4|
4,2,3.5|
4,3,3.9|
4,4,0.86|
4,5,3.3|
4,6,7.9|
4,7,9.1|
5,0,3|
5,1,7.4|
5,2,9.4|
5,3,9.4|
5,4,9|
5,5,3.9|
5,6,9|
5,7,8.9|
6,0,2.8|
6,1,9.7|
6,2,4.7|
6,3,8|
6,4,6.4|
6,5,4.4|
6,6,2.1|
6,7,0.094|
7,0,9.3|
7,1,5|
7,2,7.3|
7,3,9.3|
7,4,9.3|
7,5,0.41|
7,6,6.7|
7,7,1.6|
];
initial_distribution_y1=[0.23,0.25,0.037,0.11,0.018,0.092,0.14,0.12];
initial_distribution_y2=[0.099,0.13,0.013,0.42,0.22,0.022,0.054,0.041];
initial_distribution_y3=[0.22,0.027,0.15,0.022,0.099,0.095,0.18,0.21];
initial_distribution_y4=[0.14,0.22,0.11,0.0032,0.19,0.12,0.18,0.034];
initial_distribution_y5=[0.11,0.082,0.14,0.16,0.16,0.053,0.17,0.12];
initial_distribution_y6=[0.2,0.04,0.12,0.07,0.13,0.2,0.15,0.087];
initial_distribution_y7=[0.18,0.16,0.039,0.17,0.24,0.0069,0.099,0.1];
initial_distribution_y8=[0.19,0.071,0.15,0.075,0.14,0.17,0.17,0.044];
transition_y1=[
0.25,0.14,0.021,0.15,0.05,0.11,0.073,0.2|
0.029,0.21,0.22,0.13,0.023,0.029,0.22,0.14|
0.18,0.06,0.089,0.03,0.13,0.19,0.16,0.16|
0.098,0.089,0.16,0.012,0.17,0.17,0.088,0.22|
0.079,0.067,0.18,0.014,0.091,0.066,0.24,0.26|
0.074,0.11,0.18,0.13,0.035,0.1,0.11,0.25|
0.099,0.091,0.18,0.11,0.049,0.17,0.21,0.094|
0.14,0.17,0.13,0.15,0.055,0.16,0.13,0.069|
];
transition_y2=[
0.036,0.011,0.26,0.15,0.11,0.26,0.082,0.097|
0.02,0.06,0.089,0.22,0.15,0.19,0.13,0.14|
0.021,0.16,0.086,0.027,0.011,0.21,0.12,0.36|
0.042,0.19,0.062,0.27,0.068,0.16,0.14,0.072|
0.17,0.05,0.2,0.13,0.019,0.16,0.087,0.19|
0.021,0.01,0.21,0.21,0.12,0.13,0.23,0.066|
0.064,0.1,0.16,0.18,0.14,0.083,0.078,0.19|
0.14,0.19,0.24,0.043,0.014,0.25,0.066,0.051|
];
transition_y3=[
0.058,0.12,0.042,0.12,0.15,0.16,0.19,0.16|
0.075,0.052,0.17,0.16,0.16,0.04,0.17,0.18|
0.066,0.23,0.21,0.096,0.087,0.12,0.12,0.066|
0.15,0.059,0.11,0.099,0.19,0.031,0.017,0.33|
0.11,0.12,0.12,0.019,0.19,0.22,0.12,0.11|
0.11,0.027,0.089,0.19,0.15,0.23,0.11,0.09|
0.21,0.3,0.043,0.06,0.076,0.055,0.24,0.019|
0.12,0.089,0.16,0.07,0.14,0.15,0.11,0.16|
];
transition_y4=[
0.13,0.059,0.14,0.018,0.071,0.26,0.31,0.015|
0.17,0.068,0.21,0.17,0.18,0.0074,0.11,0.1|
0.14,0.079,0.11,0.032,0.15,0.15,0.062,0.27|
0.0053,0.14,0.064,0.14,0.089,0.26,0.17,0.13|
0.14,0.077,0.15,0.12,0.099,0.096,0.16,0.16|
0.047,0.0029,0.095,0.25,0.091,0.24,0.089,0.19|
0.071,0.24,0.056,0.033,0.2,0.21,0.015,0.18|
0.1,0.15,0.0033,0.11,0.11,0.15,0.18,0.19|
];
transition_y5=[
0.021,0.078,0.15,0.015,0.22,0.25,0.096,0.17|
0.17,0.16,0.17,0.15,0.016,0.23,0.073,0.028|
0.11,0.11,0.16,0.21,0.067,0.18,0.11,0.069|
0.11,0.15,0.13,0.14,0.032,0.18,0.1,0.15|
0.23,0.2,0.15,0.092,0.026,0.1,0.052,0.14|
0.27,0.12,0.0092,0.22,0.027,0.098,0.055,0.2|
0.23,0.038,0.097,0.16,0.17,0.14,0.14,0.026|
0.094,0.15,0.24,0.23,0.12,0.087,0.07,0.021|
];
transition_y6=[
0.024,0.094,0.16,0.19,0.09,0.2,0.13,0.11|
0.14,0.038,0.17,0.17,0.27,0.086,0.081,0.044|
0.017,0.11,0.18,0.2,0.14,0.15,0.012,0.2|
0.24,0.01,0.063,0.12,0.0028,0.24,0.095,0.23|
0.26,0.25,0.011,0.2,0.058,0.053,0.08,0.086|
0.038,0.22,0.055,0.05,0.17,0.093,0.12,0.25|
0.093,0.14,0.15,0.093,0.19,0.13,0.073,0.13|
0.14,0.028,0.082,0.13,0.21,0.084,0.092,0.24|
];
transition_y7=[
0.17,0.098,0.11,0.097,0.12,0.12,0.21,0.079|
0.046,0.076,0.16,0.077,0.061,0.27,0.23,0.08|
0.18,0.07,0.054,0.083,0.2,0.17,0.092,0.15|
0.055,0.29,0.043,0.091,0.25,0.12,0.14,0.021|
0.26,0.049,0.22,0.15,0.097,0.11,0.024,0.086|
0.12,0.16,0.16,0.026,0.026,0.2,0.15,0.16|
0.19,0.1,0.18,0.13,0.15,0.057,0.1,0.1|
0.091,0.12,0.08,0.22,0.081,0.083,0.085,0.24|
];
transition_y8=[
0.028,0.25,0.041,0.082,0.018,0.15,0.26,0.16|
0.081,0.15,0.074,0.13,0.17,0.13,0.14,0.13|
0.15,0.15,0.016,0.081,0.036,0.19,0.17,0.21|
0.12,0.2,0.12,0.021,0.15,0.018,0.11,0.27|
0.14,0.092,0.17,0.21,0.14,0.15,0.026,0.084|
0.089,0.13,0.022,0.043,0.21,0.17,0.15,0.18|
0.17,0.15,0.14,0.17,0.14,0.076,0.16,0.012|
0.074,0.15,0.23,0.17,0.018,0.11,0.21,0.035|
];
